* #variable= 104 #constraint= 48
min: +1540 x1 +3003 x2 +55 x3 +2346 x4 +6441 x5 +105 x6 +4005 x7 +5671 x8 +4371 x9 +666 x10 +2145 x11 +1540 x12 +528 x13 +1128 x14 +2485 x15 +1653 x16 +2775 x17 +496 x18 +1485 x19 +1176 x20 ;

+1540 x1 +3003 x2 +55 x3 +2346 x4 +6441 x5 +105 x6 +4005 x7 +5671 x8 +4371 x9 +666 x10 +2145 x11 +1540 x12 +528 x13 +1128 x14 +2485 x15 +1653 x16 +2775 x17 +496 x18 +1485 x19 +1176 x20 >= 0 ;

+1 x1 +1 x2 +1 x3 +1 x4 = 1 ;
+1 x5 +1 x6 +1 x7 +1 x8 = 1 ;
+1 x9 +1 x10 +1 x11 +1 x12 = 1 ;
+1 x13 +1 x14 +1 x15 +1 x16 = 1 ;
+1 x17 +1 x18 +1 x19 +1 x20 = 1 ;

+1 x5 +1 x9 +1 x13 +1 x17 = 1 ;
+1 x1 +1 x10 +1 x14 +1 x18 = 1 ;
+1 x2 +1 x6 +1 x15 +1 x19 = 1 ;
+1 x3 +1 x7 +1 x11 +1 x20 = 1 ;
+1 x4 +1 x8 +1 x12 +1 x16 = 1 ;

+1 x21 +2 x22 +4 x23 +8 x24  >= 0 ;
+1 x25 +2 x26 +4 x27 +8 x28  >= 0 ;
+1 x29 +2 x30 +4 x31 +8 x32  >= 0 ;
+1 x33 +2 x34 +4 x35 +8 x36  >= 0 ;
+1 x37 +2 x38 +4 x39 +8 x40  >= 0 ;


+1 x41 +2 x42 +4 x43 +8 x44  >= 0 ;
+1 x21 +2 x22 +4 x23 +8 x24 -1 x25 -2 x26 -4 x27 -8 x28 +5 x1 +1 x41 +2 x42 +4 x43 +8 x44  = 4 ;

+1 x45 +2 x46 +4 x47 +8 x48  >= 0 ;
+1 x21 +2 x22 +4 x23 +8 x24 -1 x29 -2 x30 -4 x31 -8 x32 +5 x2 +1 x45 +2 x46 +4 x47 +8 x48  = 4 ;

+1 x49 +2 x50 +4 x51 +8 x52  >= 0 ;
+1 x21 +2 x22 +4 x23 +8 x24 -1 x33 -2 x34 -4 x35 -8 x36 +5 x3 +1 x49 +2 x50 +4 x51 +8 x52  = 4 ;

+1 x53 +2 x54 +4 x55 +8 x56  >= 0 ;
+1 x21 +2 x22 +4 x23 +8 x24 -1 x37 -2 x38 -4 x39 -8 x40 +5 x4 +1 x53 +2 x54 +4 x55 +8 x56  = 4 ;

+1 x57 +2 x58 +4 x59 +8 x60  >= 0 ;
+1 x25 +2 x26 +4 x27 +8 x28 -1 x21 -2 x22 -4 x23 -8 x24 +5 x5 +1 x57 +2 x58 +4 x59 +8 x60  = 4 ;

+1 x61 +2 x62 +4 x63 +8 x64  >= 0 ;
+1 x25 +2 x26 +4 x27 +8 x28 -1 x29 -2 x30 -4 x31 -8 x32 +5 x6 +1 x61 +2 x62 +4 x63 +8 x64  = 4 ;

+1 x65 +2 x66 +4 x67 +8 x68  >= 0 ;
+1 x25 +2 x26 +4 x27 +8 x28 -1 x33 -2 x34 -4 x35 -8 x36 +5 x7 +1 x65 +2 x66 +4 x67 +8 x68  = 4 ;

+1 x69 +2 x70 +4 x71 +8 x72  >= 0 ;
+1 x25 +2 x26 +4 x27 +8 x28 -1 x37 -2 x38 -4 x39 -8 x40 +5 x8 +1 x69 +2 x70 +4 x71 +8 x72  = 4 ;

+1 x73 +2 x74 +4 x75 +8 x76  >= 0 ;
+1 x29 +2 x30 +4 x31 +8 x32 -1 x21 -2 x22 -4 x23 -8 x24 +5 x9 +1 x73 +2 x74 +4 x75 +8 x76  = 4 ;

+1 x77 +2 x78 +4 x79 +8 x80  >= 0 ;
+1 x29 +2 x30 +4 x31 +8 x32 -1 x25 -2 x26 -4 x27 -8 x28 +5 x10 +1 x77 +2 x78 +4 x79 +8 x80  = 4 ;

+1 x81 +2 x82 +4 x83 +8 x84  >= 0 ;
+1 x29 +2 x30 +4 x31 +8 x32 -1 x33 -2 x34 -4 x35 -8 x36 +5 x11 +1 x81 +2 x82 +4 x83 +8 x84  = 4 ;

+1 x85 +2 x86 +4 x87 +8 x88  >= 0 ;
+1 x29 +2 x30 +4 x31 +8 x32 -1 x37 -2 x38 -4 x39 -8 x40 +5 x12 +1 x85 +2 x86 +4 x87 +8 x88  = 4 ;

+1 x89 +2 x90 +4 x91 +8 x92  >= 0 ;
+1 x33 +2 x34 +4 x35 +8 x36 -1 x21 -2 x22 -4 x23 -8 x24 +5 x13 +1 x89 +2 x90 +4 x91 +8 x92  = 4 ;

+1 x93 +2 x94 +4 x95 +8 x96  >= 0 ;
+1 x33 +2 x34 +4 x35 +8 x36 -1 x25 -2 x26 -4 x27 -8 x28 +5 x14 +1 x93 +2 x94 +4 x95 +8 x96  = 4 ;

+1 x97 +2 x98 +4 x99 +8 x100  >= 0 ;
+1 x33 +2 x34 +4 x35 +8 x36 -1 x29 -2 x30 -4 x31 -8 x32 +5 x15 +1 x97 +2 x98 +4 x99 +8 x100  = 4 ;

+1 x101 +2 x102 +4 x103 +8 x104  >= 0 ;
+1 x33 +2 x34 +4 x35 +8 x36 -1 x37 -2 x38 -4 x39 -8 x40 +5 x16 +1 x101 +2 x102 +4 x103 +8 x104  = 4 ;